NAME: rand_1/map7_180
TYPE: TSP
COMMENT: autogenerated using a wonderful map creator
DIMENSION: 210
EDGE_WEIGHT_TYPE: EUC_2D
NODE_COORD_SECTION
1 66.0 50.0
2 21.0 12.0
3 74.0 5.0
4 70.0 44.0
5 75.0 56.0
6 22.0 51.0
7 72.0 8.0
8 68.0 52.0
9 69.0 53.0
10 66.0 57.0
11 69.0 52.0
12 6.0 7.0
13 66.0 46.0
14 6.0 8.0
15 9.0 8.0
16 76.0 40.0
17 69.0 42.0
18 70.0 37.0
19 72.0 57.0
20 11.0 10.0
21 77.0 37.0
22 26.0 53.0
23 13.0 13.0
24 65.0 56.0
25 69.0 61.0
26 70.0 35.0
27 22.0 55.0
28 66.0 55.0
29 71.0 50.0
30 69.0 9.0
31 75.0 51.0
32 76.0 41.0
33 30.0 56.0
34 10.0 10.0
35 20.0 10.0
36 70.0 36.0
37 75.0 39.0
38 75.0 43.0
39 18.0 4.0
40 69.0 50.0
41 28.0 54.0
42 6.0 4.0
43 23.0 6.0
44 67.0 56.0
45 29.0 59.0
46 70.0 7.0
47 19.0 55.0
48 75.0 49.0
49 67.0 42.0
50 72.0 54.0
51 67.0 54.0
52 71.0 7.0
53 19.0 56.0
54 75.0 47.0
55 4.0 8.0
56 71.0 36.0
57 19.0 4.0
58 29.0 55.0
59 23.0 52.0
60 76.0 61.0
61 62.0 8.0
62 50.0 52.0
63 73.0 17.0
64 13.0 42.0
65 39.0 24.0
66 31.0 29.0
67 23.0 25.0
68 65.0 15.0
69 37.0 33.0
70 58.0 31.0
71 40.0 59.0
72 68.0 20.0
73 42.0 32.0
74 58.0 58.0
75 54.0 6.0
76 7.0 28.0
77 56.0 12.0
78 73.0 28.0
79 39.0 26.0
80 53.0 25.0
81 11.0 53.0
82 38.0 46.0
83 38.0 55.0
84 40.0 52.0
85 59.0 32.0
86 42.0 25.0
87 33.0 22.0
88 41.0 35.0
89 43.0 32.0
90 42.0 34.0
91 41.0 44.0
92 2.0 25.0
93 53.0 9.0
94 13.0 37.0
95 54.0 17.0
96 31.0 24.0
97 56.0 23.0
98 39.0 46.0
99 40.0 45.0
100 57.0 6.0
101 9.0 21.0
102 12.0 38.0
103 58.0 35.0
104 61.0 31.0
105 50.0 40.0
106 8.0 43.0
107 54.0 10.0
108 8.0 52.0
109 10.0 49.0
110 42.0 54.0
111 57.0 36.0
112 39.0 30.0
113 8.0 61.0
114 31.0 26.0
115 11.0 57.0
116 12.0 22.0
117 43.0 55.0
118 58.0 19.0
119 59.0 27.0
120 42.0 20.0
121 41.0 30.0
122 59.0 45.0
123 36.0 43.0
124 65.0 24.0
125 54.0 58.0
126 25.0 22.0
127 35.0 32.0
128 53.0 13.0
129 54.0 12.0
130 46.0 29.0
131 37.0 60.0
132 54.0 21.0
133 51.0 52.0
134 12.0 24.0
135 38.0 61.0
136 59.0 29.0
137 27.0 24.0
138 53.0 52.0
139 65.0 17.0
140 42.0 31.0
141 59.0 56.0
142 11.0 43.0
143 54.0 23.0
144 51.0 54.0
145 21.0 20.0
146 11.0 52.0
147 22.0 27.0
148 13.0 46.0
149 38.0 45.0
150 55.0 33.0
151 61.0 28.0
152 57.0 15.0
153 53.0 8.0
154 56.0 4.0
155 5.0 59.0
156 6.0 24.0
157 58.0 7.0
158 21.0 22.0
159 12.0 19.0
160 69.0 16.0
161 3.0 25.0
162 52.0 9.0
163 4.0 24.0
164 55.0 35.0
165 7.0 50.0
166 52.0 27.0
167 7.0 59.0
168 19.0 24.0
169 33.0 23.0
170 54.0 9.0
171 12.0 58.0
172 13.0 32.0
173 53.0 31.0
174 58.0 27.0
175 57.0 10.0
176 68.0 19.0
177 12.0 60.0
178 37.0 59.0
179 38.0 33.0
180 6.0 28.0
181 58.0 11.0
182 21.0 26.0
183 12.0 23.0
184 55.0 21.0
185 58.0 20.0
186 67.0 23.0
187 70.0 19.0
188 78.0 23.0
189 37.0 34.0
190 76.0 16.0
191 8.0 28.0
192 57.0 12.0
193 68.0 21.0
194 57.0 30.0
195 58.0 59.0
196 58.0 4.0
197 44.0 48.0
198 53.0 26.0
199 70.0 21.0
200 54.0 34.0
201 53.0 44.0
202 5.0 22.0
203 19.0 21.0
204 56.0 40.0
205 45.0 49.0
206 60.0 31.0
207 56.0 58.0
208 14.0 52.0
209 38.0 19.0
210 44.0 32.0
211 49.0 28.0
212 38.0 28.0
213 52.0 54.0
214 55.0 16.0
215 44.0 59.0
216 56.0 24.0
217 27.0 27.0
218 5.0 24.0
219 76.0 20.0
220 65.0 20.0
221 66.0 19.0
222 56.0 51.0
223 57.0 25.0
224 12.0 57.0
225 59.0 53.0
226 61.0 50.0
227 38.0 30.0
228 73.0 15.0
229 41.0 56.0
230 55.0 18.0
231 54.0 20.0
232 70.0 16.0
233 54.0 29.0
234 34.0 26.0
235 40.0 39.0
236 37.0 22.0
237 12.0 32.0
238 12.0 41.0
239 9.0 24.0
240 68.0 18.0
START_DEPOT_SECTION
1
2
3
4
5
6
7
8
9
10
11
12
13
14
15
16
17
18
19
20
21
22
23
24
25
26
27
28
29
30
-1
END_DEPOT_SECTION
31
32
33
34
35
36
37
38
39
40
41
42
43
44
45
46
47
48
49
50
51
52
53
54
55
56
57
58
59
60
-1
EOF
